ilp_joint/output/sublimation_ilp.lp
Maximize
  0.6919109741822578 Z_492_0_0 + 0.0485061387549965 Z_492_0_1
   + 0.00642183538801496 Z_492_0_2 + 0.0580479191856681 Z_492_0_3
   + 0.00293788314695282 Z_546_0_0 + 0.0860879692296592 Z_546_0_1
   + 0.0211603170634428 Z_546_0_2 + 0.4140685941133471 Z_546_0_3
   + 0.0183434844797791 Z_39_0_0 + 0.6933036790751157 Z_39_0_1
   + 0.0114900553568688 Z_39_0_2 + 0.0065367470246961 Z_39_0_3
   + 0.00346735152419778 Z_49_0_0 + 0.0607607737460183 Z_49_0_1
   + 0.00604400210848741 Z_49_0_2 + 0.5552914379443979 Z_49_0_3
   + 0.1176848523535339 Z_90_0_0 + 0.2499531998696277 Z_90_0_1
   + 0.00290841056310308 Z_90_0_2 + 0.2273969040497207 Z_90_0_3
   + 0.0811952676700564 Z_560_0_0 + 0.0320872455834578 Z_560_0_1
   + 0.00725483191336156 Z_560_0_2 + 0.6811456408762134 Z_560_0_3 + [
   0.00314299710989865 Z_492_0_0 * Z_546_0_0
   + 0.0857247619789736 Z_492_0_0 * Z_39_0_0
   + 0.040504083160378 Z_492_0_0 * Z_90_0_0
   + 0.1511965856843218 Z_492_0_0 * Z_560_0_0
   + 0.00314299710989865 Z_492_0_1 * Z_546_0_1
   + 0.0857247619789736 Z_492_0_1 * Z_39_0_1
   + 0.040504083160378 Z_492_0_1 * Z_90_0_1
   + 0.1511965856843218 Z_492_0_1 * Z_560_0_1
   + 0.00314299710989865 Z_492_0_2 * Z_546_0_2
   + 0.0857247619789736 Z_492_0_2 * Z_39_0_2
   + 0.040504083160378 Z_492_0_2 * Z_90_0_2
   + 0.1511965856843218 Z_492_0_2 * Z_560_0_2
   + 0.00314299710989865 Z_492_0_3 * Z_546_0_3
   + 0.0857247619789736 Z_492_0_3 * Z_39_0_3
   + 0.040504083160378 Z_492_0_3 * Z_90_0_3
   + 0.1511965856843218 Z_492_0_3 * Z_560_0_3
   + 0.0677740592009956 Z_39_0_0 * Z_49_0_0
   + 0.067779664083229 Z_39_0_0 * Z_90_0_0
   + 0.1511965856843218 Z_39_0_0 * Z_560_0_0
   + 0.0677740592009956 Z_39_0_1 * Z_49_0_1
   + 0.067779664083229 Z_39_0_1 * Z_90_0_1
   + 0.1511965856843218 Z_39_0_1 * Z_560_0_1
   + 0.0677740592009956 Z_39_0_2 * Z_49_0_2
   + 0.067779664083229 Z_39_0_2 * Z_90_0_2
   + 0.1511965856843218 Z_39_0_2 * Z_560_0_2
   + 0.0677740592009956 Z_39_0_3 * Z_49_0_3
   + 0.067779664083229 Z_39_0_3 * Z_90_0_3
   + 0.1511965856843218 Z_39_0_3 * Z_560_0_3 ] / 2 
Subject To
 constraint1_4920: Z_492_0_0 + Z_492_0_1 + Z_492_0_2 + Z_492_0_3 <= 1
 constraint1_5460: Z_546_0_0 + Z_546_0_1 + Z_546_0_2 + Z_546_0_3 <= 1
 constraint1_390: Z_39_0_0 + Z_39_0_1 + Z_39_0_2 + Z_39_0_3 <= 1
 constraint1_490: Z_49_0_0 + Z_49_0_1 + Z_49_0_2 + Z_49_0_3 <= 1
 constraint1_900: Z_90_0_0 + Z_90_0_1 + Z_90_0_2 + Z_90_0_3 <= 1
 constraint1_5600: Z_560_0_0 + Z_560_0_1 + Z_560_0_2 + Z_560_0_3 <= 1
 constraint2_4920: Z_492_0_0 <= 1
 constraint2_4921: Z_492_0_1 <= 1
 constraint2_4922: Z_492_0_2 <= 1
 constraint2_4923: Z_492_0_3 <= 1
 constraint2_5460: Z_546_0_0 <= 1
 constraint2_5461: Z_546_0_1 <= 1
 constraint2_5462: Z_546_0_2 <= 1
 constraint2_5463: Z_546_0_3 <= 1
 constraint2_390: Z_39_0_0 <= 1
 constraint2_391: Z_39_0_1 <= 1
 constraint2_392: Z_39_0_2 <= 1
 constraint2_393: Z_39_0_3 <= 1
 constraint2_490: Z_49_0_0 <= 1
 constraint2_491: Z_49_0_1 <= 1
 constraint2_492: Z_49_0_2 <= 1
 constraint2_493: Z_49_0_3 <= 1
 constraint2_900: Z_90_0_0 <= 1
 constraint2_901: Z_90_0_1 <= 1
 constraint2_902: Z_90_0_2 <= 1
 constraint2_903: Z_90_0_3 <= 1
 constraint2_5600: Z_560_0_0 <= 1
 constraint2_5601: Z_560_0_1 <= 1
 constraint2_5602: Z_560_0_2 <= 1
 constraint2_5603: Z_560_0_3 <= 1
Bounds
Binaries
 Z_492_0_0 Z_492_0_1 Z_492_0_2 Z_492_0_3 Z_546_0_0 Z_546_0_1 Z_546_0_2
 Z_546_0_3 Z_39_0_0 Z_39_0_1 Z_39_0_2 Z_39_0_3 Z_49_0_0 Z_49_0_1 Z_49_0_2
 Z_49_0_3 Z_90_0_0 Z_90_0_1 Z_90_0_2 Z_90_0_3 Z_560_0_0 Z_560_0_1 Z_560_0_2
 Z_560_0_3
End
