ilp_joint/output/sublimation_ilp.mps
NAME sublimation_srl_ilp
* Max problem is converted into Min one
ROWS
 N  OBJ
 L  constraint1_4920
 L  constraint1_5460
 L  constraint1_390
 L  constraint1_490
 L  constraint1_900
 L  constraint1_5600
 L  constraint2_4920
 L  constraint2_4921
 L  constraint2_4922
 L  constraint2_4923
 L  constraint2_5460
 L  constraint2_5461
 L  constraint2_5462
 L  constraint2_5463
 L  constraint2_390
 L  constraint2_391
 L  constraint2_392
 L  constraint2_393
 L  constraint2_490
 L  constraint2_491
 L  constraint2_492
 L  constraint2_493
 L  constraint2_900
 L  constraint2_901
 L  constraint2_902
 L  constraint2_903
 L  constraint2_5600
 L  constraint2_5601
 L  constraint2_5602
 L  constraint2_5603
COLUMNS
    MARKER    'MARKER'                 'INTORG'
    Z_492_0_0  OBJ       -6.9191097418225778e-01
    Z_492_0_0  constraint1_4920  1
    Z_492_0_0  constraint2_4920  1
    Z_492_0_1  OBJ       -4.8506138754996521e-02
    Z_492_0_1  constraint1_4920  1
    Z_492_0_1  constraint2_4921  1
    Z_492_0_2  OBJ       -6.4218353880149629e-03
    Z_492_0_2  constraint1_4920  1
    Z_492_0_2  constraint2_4922  1
    Z_492_0_3  OBJ       -5.8047919185668054e-02
    Z_492_0_3  constraint1_4920  1
    Z_492_0_3  constraint2_4923  1
    Z_546_0_0  OBJ       -2.9378831469528245e-03
    Z_546_0_0  constraint1_5460  1
    Z_546_0_0  constraint2_5460  1
    Z_546_0_1  OBJ       -8.6087969229659153e-02
    Z_546_0_1  constraint1_5460  1
    Z_546_0_1  constraint2_5461  1
    Z_546_0_2  OBJ       -2.1160317063442836e-02
    Z_546_0_2  constraint1_5460  1
    Z_546_0_2  constraint2_5462  1
    Z_546_0_3  OBJ       -4.1406859411334707e-01
    Z_546_0_3  constraint1_5460  1
    Z_546_0_3  constraint2_5463  1
    Z_39_0_0  OBJ       -1.8343484479779060e-02
    Z_39_0_0  constraint1_390  1
    Z_39_0_0  constraint2_390  1
    Z_39_0_1  OBJ       -6.9330367907511570e-01
    Z_39_0_1  constraint1_390  1
    Z_39_0_1  constraint2_391  1
    Z_39_0_2  OBJ       -1.1490055356868823e-02
    Z_39_0_2  constraint1_390  1
    Z_39_0_2  constraint2_392  1
    Z_39_0_3  OBJ       -6.5367470246960983e-03
    Z_39_0_3  constraint1_390  1
    Z_39_0_3  constraint2_393  1
    Z_49_0_0  OBJ       -3.4673515241977816e-03
    Z_49_0_0  constraint1_490  1
    Z_49_0_0  constraint2_490  1
    Z_49_0_1  OBJ       -6.0760773746018328e-02
    Z_49_0_1  constraint1_490  1
    Z_49_0_1  constraint2_491  1
    Z_49_0_2  OBJ       -6.0440021084874123e-03
    Z_49_0_2  constraint1_490  1
    Z_49_0_2  constraint2_492  1
    Z_49_0_3  OBJ       -5.5529143794439795e-01
    Z_49_0_3  constraint1_490  1
    Z_49_0_3  constraint2_493  1
    Z_90_0_0  OBJ       -1.1768485235353394e-01
    Z_90_0_0  constraint1_900  1
    Z_90_0_0  constraint2_900  1
    Z_90_0_1  OBJ       -2.4995319986962766e-01
    Z_90_0_1  constraint1_900  1
    Z_90_0_1  constraint2_901  1
    Z_90_0_2  OBJ       -2.9084105631030813e-03
    Z_90_0_2  constraint1_900  1
    Z_90_0_2  constraint2_902  1
    Z_90_0_3  OBJ       -2.2739690404972066e-01
    Z_90_0_3  constraint1_900  1
    Z_90_0_3  constraint2_903  1
    Z_560_0_0  OBJ       -8.1195267670056373e-02
    Z_560_0_0  constraint1_5600  1
    Z_560_0_0  constraint2_5600  1
    Z_560_0_1  OBJ       -3.2087245583457845e-02
    Z_560_0_1  constraint1_5600  1
    Z_560_0_1  constraint2_5601  1
    Z_560_0_2  OBJ       -7.2548319133615589e-03
    Z_560_0_2  constraint1_5600  1
    Z_560_0_2  constraint2_5602  1
    Z_560_0_3  OBJ       -6.8114564087621343e-01
    Z_560_0_3  constraint1_5600  1
    Z_560_0_3  constraint2_5603  1
    MARKER    'MARKER'                 'INTEND'
RHS
    RHS1      constraint1_4920  1
    RHS1      constraint1_5460  1
    RHS1      constraint1_390  1
    RHS1      constraint1_490  1
    RHS1      constraint1_900  1
    RHS1      constraint1_5600  1
    RHS1      constraint2_4920  1
    RHS1      constraint2_4921  1
    RHS1      constraint2_4922  1
    RHS1      constraint2_4923  1
    RHS1      constraint2_5460  1
    RHS1      constraint2_5461  1
    RHS1      constraint2_5462  1
    RHS1      constraint2_5463  1
    RHS1      constraint2_390  1
    RHS1      constraint2_391  1
    RHS1      constraint2_392  1
    RHS1      constraint2_393  1
    RHS1      constraint2_490  1
    RHS1      constraint2_491  1
    RHS1      constraint2_492  1
    RHS1      constraint2_493  1
    RHS1      constraint2_900  1
    RHS1      constraint2_901  1
    RHS1      constraint2_902  1
    RHS1      constraint2_903  1
    RHS1      constraint2_5600  1
    RHS1      constraint2_5601  1
    RHS1      constraint2_5602  1
    RHS1      constraint2_5603  1
BOUNDS
 UP BND1      Z_492_0_0  1
 UP BND1      Z_492_0_1  1
 UP BND1      Z_492_0_2  1
 UP BND1      Z_492_0_3  1
 UP BND1      Z_546_0_0  1
 UP BND1      Z_546_0_1  1
 UP BND1      Z_546_0_2  1
 UP BND1      Z_546_0_3  1
 UP BND1      Z_39_0_0  1
 UP BND1      Z_39_0_1  1
 UP BND1      Z_39_0_2  1
 UP BND1      Z_39_0_3  1
 UP BND1      Z_49_0_0  1
 UP BND1      Z_49_0_1  1
 UP BND1      Z_49_0_2  1
 UP BND1      Z_49_0_3  1
 UP BND1      Z_90_0_0  1
 UP BND1      Z_90_0_1  1
 UP BND1      Z_90_0_2  1
 UP BND1      Z_90_0_3  1
 UP BND1      Z_560_0_0  1
 UP BND1      Z_560_0_1  1
 UP BND1      Z_560_0_2  1
 UP BND1      Z_560_0_3  1
QUADOBJ
    Z_492_0_0  Z_546_0_0  -1.5714985549493247e-03
    Z_492_0_0  Z_39_0_0  -4.2862380989486790e-02
    Z_492_0_0  Z_90_0_0  -2.0252041580188979e-02
    Z_492_0_0  Z_560_0_0  -7.5598292842160908e-02
    Z_492_0_1  Z_546_0_1  -1.5714985549493247e-03
    Z_492_0_1  Z_39_0_1  -4.2862380989486790e-02
    Z_492_0_1  Z_90_0_1  -2.0252041580188979e-02
    Z_492_0_1  Z_560_0_1  -7.5598292842160908e-02
    Z_492_0_2  Z_546_0_2  -1.5714985549493247e-03
    Z_492_0_2  Z_39_0_2  -4.2862380989486790e-02
    Z_492_0_2  Z_90_0_2  -2.0252041580188979e-02
    Z_492_0_2  Z_560_0_2  -7.5598292842160908e-02
    Z_492_0_3  Z_546_0_3  -1.5714985549493247e-03
    Z_492_0_3  Z_39_0_3  -4.2862380989486790e-02
    Z_492_0_3  Z_90_0_3  -2.0252041580188979e-02
    Z_492_0_3  Z_560_0_3  -7.5598292842160908e-02
    Z_39_0_0  Z_49_0_0  -3.3887029600497783e-02
    Z_39_0_0  Z_90_0_0  -3.3889832041614519e-02
    Z_39_0_0  Z_560_0_0  -7.5598292842160908e-02
    Z_39_0_1  Z_49_0_1  -3.3887029600497783e-02
    Z_39_0_1  Z_90_0_1  -3.3889832041614519e-02
    Z_39_0_1  Z_560_0_1  -7.5598292842160908e-02
    Z_39_0_2  Z_49_0_2  -3.3887029600497783e-02
    Z_39_0_2  Z_90_0_2  -3.3889832041614519e-02
    Z_39_0_2  Z_560_0_2  -7.5598292842160908e-02
    Z_39_0_3  Z_49_0_3  -3.3887029600497783e-02
    Z_39_0_3  Z_90_0_3  -3.3889832041614519e-02
    Z_39_0_3  Z_560_0_3  -7.5598292842160908e-02
ENDATA
