ilp_joint/output/sublimation_ilp.sol
# Solution for model sublimation_srl_ilp
# Objective value = 4.4929753774427432e+00
Z_255_0_0 0
Z_255_0_1 0
Z_255_0_2 0
Z_255_0_3 0
Z_255_0_4 1
Z_603_2_0 0
Z_603_2_1 0
Z_603_2_2 0
Z_603_2_3 0
Z_603_2_4 1
Z_603_4_0 0
Z_603_4_1 0
Z_603_4_2 0
Z_603_4_3 1
Z_603_4_4 0
Z_603_0_0 0
Z_603_0_1 0
Z_603_0_2 0
Z_603_0_3 0
Z_603_0_4 1
Z_603_3_0 0
Z_603_3_1 0
Z_603_3_2 0
Z_603_3_3 0
Z_603_3_4 1
Z_603_1_0 0
Z_603_1_1 0
Z_603_1_2 1
Z_603_1_3 0
Z_603_1_4 0
Z_603_5_0 0
Z_603_5_1 0
Z_603_5_2 0
Z_603_5_3 0
Z_603_5_4 1
Z_546_0_0 0
Z_546_0_1 0
Z_546_0_2 0
Z_546_0_3 0
Z_546_0_4 1
